c File: flat100_3_0.col
c
c SOURCE: Joseph Culberson (joe@cs.ualberta.ca)
c DESCRIPTION: Quasi-random coloring problem
c              generated with flatness = 0
c                             probability = 0.072
c                             known coloring = 3
c                             random seed = 1022
c              Creation Date:  Thu Jun  4 18:55:09 1998
c Maximum degree = 8 Minimum degree = 1
c p edge 100 239
c cnf created by edge2cnf
p cnf 300 1117
-1 -2 0
-1 -3 0
-2 -3 0
1 2 3 0
-4 -5 0
-4 -6 0
-5 -6 0
4 5 6 0
-7 -8 0
-7 -9 0
-8 -9 0
7 8 9 0
-10 -11 0
-10 -12 0
-11 -12 0
10 11 12 0
-13 -14 0
-13 -15 0
-14 -15 0
13 14 15 0
-16 -17 0
-16 -18 0
-17 -18 0
16 17 18 0
-19 -20 0
-19 -21 0
-20 -21 0
19 20 21 0
-22 -23 0
-22 -24 0
-23 -24 0
22 23 24 0
-25 -26 0
-25 -27 0
-26 -27 0
25 26 27 0
-28 -29 0
-28 -30 0
-29 -30 0
28 29 30 0
-31 -32 0
-31 -33 0
-32 -33 0
31 32 33 0
-34 -35 0
-34 -36 0
-35 -36 0
34 35 36 0
-37 -38 0
-37 -39 0
-38 -39 0
37 38 39 0
-40 -41 0
-40 -42 0
-41 -42 0
40 41 42 0
-43 -44 0
-43 -45 0
-44 -45 0
43 44 45 0
-46 -47 0
-46 -48 0
-47 -48 0
46 47 48 0
-49 -50 0
-49 -51 0
-50 -51 0
49 50 51 0
-52 -53 0
-52 -54 0
-53 -54 0
52 53 54 0
-55 -56 0
-55 -57 0
-56 -57 0
55 56 57 0
-58 -59 0
-58 -60 0
-59 -60 0
58 59 60 0
-61 -62 0
-61 -63 0
-62 -63 0
61 62 63 0
-64 -65 0
-64 -66 0
-65 -66 0
64 65 66 0
-67 -68 0
-67 -69 0
-68 -69 0
67 68 69 0
-70 -71 0
-70 -72 0
-71 -72 0
70 71 72 0
-73 -74 0
-73 -75 0
-74 -75 0
73 74 75 0
-76 -77 0
-76 -78 0
-77 -78 0
76 77 78 0
-79 -80 0
-79 -81 0
-80 -81 0
79 80 81 0
-82 -83 0
-82 -84 0
-83 -84 0
82 83 84 0
-85 -86 0
-85 -87 0
-86 -87 0
85 86 87 0
-88 -89 0
-88 -90 0
-89 -90 0
88 89 90 0
-91 -92 0
-91 -93 0
-92 -93 0
91 92 93 0
-94 -95 0
-94 -96 0
-95 -96 0
94 95 96 0
-97 -98 0
-97 -99 0
-98 -99 0
97 98 99 0
-100 -101 0
-100 -102 0
-101 -102 0
100 101 102 0
-103 -104 0
-103 -105 0
-104 -105 0
103 104 105 0
-106 -107 0
-106 -108 0
-107 -108 0
106 107 108 0
-109 -110 0
-109 -111 0
-110 -111 0
109 110 111 0
-112 -113 0
-112 -114 0
-113 -114 0
112 113 114 0
-115 -116 0
-115 -117 0
-116 -117 0
115 116 117 0
-118 -119 0
-118 -120 0
-119 -120 0
118 119 120 0
-121 -122 0
-121 -123 0
-122 -123 0
121 122 123 0
-124 -125 0
-124 -126 0
-125 -126 0
124 125 126 0
-127 -128 0
-127 -129 0
-128 -129 0
127 128 129 0
-130 -131 0
-130 -132 0
-131 -132 0
130 131 132 0
-133 -134 0
-133 -135 0
-134 -135 0
133 134 135 0
-136 -137 0
-136 -138 0
-137 -138 0
136 137 138 0
-139 -140 0
-139 -141 0
-140 -141 0
139 140 141 0
-142 -143 0
-142 -144 0
-143 -144 0
142 143 144 0
-145 -146 0
-145 -147 0
-146 -147 0
145 146 147 0
-148 -149 0
-148 -150 0
-149 -150 0
148 149 150 0
-151 -152 0
-151 -153 0
-152 -153 0
151 152 153 0
-154 -155 0
-154 -156 0
-155 -156 0
154 155 156 0
-157 -158 0
-157 -159 0
-158 -159 0
157 158 159 0
-160 -161 0
-160 -162 0
-161 -162 0
160 161 162 0
-163 -164 0
-163 -165 0
-164 -165 0
163 164 165 0
-166 -167 0
-166 -168 0
-167 -168 0
166 167 168 0
-169 -170 0
-169 -171 0
-170 -171 0
169 170 171 0
-172 -173 0
-172 -174 0
-173 -174 0
172 173 174 0
-175 -176 0
-175 -177 0
-176 -177 0
175 176 177 0
-178 -179 0
-178 -180 0
-179 -180 0
178 179 180 0
-181 -182 0
-181 -183 0
-182 -183 0
181 182 183 0
-184 -185 0
-184 -186 0
-185 -186 0
184 185 186 0
-187 -188 0
-187 -189 0
-188 -189 0
187 188 189 0
-190 -191 0
-190 -192 0
-191 -192 0
190 191 192 0
-193 -194 0
-193 -195 0
-194 -195 0
193 194 195 0
-196 -197 0
-196 -198 0
-197 -198 0
196 197 198 0
-199 -200 0
-199 -201 0
-200 -201 0
199 200 201 0
-202 -203 0
-202 -204 0
-203 -204 0
202 203 204 0
-205 -206 0
-205 -207 0
-206 -207 0
205 206 207 0
-208 -209 0
-208 -210 0
-209 -210 0
208 209 210 0
-211 -212 0
-211 -213 0
-212 -213 0
211 212 213 0
-214 -215 0
-214 -216 0
-215 -216 0
214 215 216 0
-217 -218 0
-217 -219 0
-218 -219 0
217 218 219 0
-220 -221 0
-220 -222 0
-221 -222 0
220 221 222 0
-223 -224 0
-223 -225 0
-224 -225 0
223 224 225 0
-226 -227 0
-226 -228 0
-227 -228 0
226 227 228 0
-229 -230 0
-229 -231 0
-230 -231 0
229 230 231 0
-232 -233 0
-232 -234 0
-233 -234 0
232 233 234 0
-235 -236 0
-235 -237 0
-236 -237 0
235 236 237 0
-238 -239 0
-238 -240 0
-239 -240 0
238 239 240 0
-241 -242 0
-241 -243 0
-242 -243 0
241 242 243 0
-244 -245 0
-244 -246 0
-245 -246 0
244 245 246 0
-247 -248 0
-247 -249 0
-248 -249 0
247 248 249 0
-250 -251 0
-250 -252 0
-251 -252 0
250 251 252 0
-253 -254 0
-253 -255 0
-254 -255 0
253 254 255 0
-256 -257 0
-256 -258 0
-257 -258 0
256 257 258 0
-259 -260 0
-259 -261 0
-260 -261 0
259 260 261 0
-262 -263 0
-262 -264 0
-263 -264 0
262 263 264 0
-265 -266 0
-265 -267 0
-266 -267 0
265 266 267 0
-268 -269 0
-268 -270 0
-269 -270 0
268 269 270 0
-271 -272 0
-271 -273 0
-272 -273 0
271 272 273 0
-274 -275 0
-274 -276 0
-275 -276 0
274 275 276 0
-277 -278 0
-277 -279 0
-278 -279 0
277 278 279 0
-280 -281 0
-280 -282 0
-281 -282 0
280 281 282 0
-283 -284 0
-283 -285 0
-284 -285 0
283 284 285 0
-286 -287 0
-286 -288 0
-287 -288 0
286 287 288 0
-289 -290 0
-289 -291 0
-290 -291 0
289 290 291 0
-292 -293 0
-292 -294 0
-293 -294 0
292 293 294 0
-295 -296 0
-295 -297 0
-296 -297 0
295 296 297 0
-298 -299 0
-298 -300 0
-299 -300 0
298 299 300 0
-172 -1 0
-173 -2 0
-174 -3 0
-181 -1 0
-182 -2 0
-183 -3 0
-199 -1 0
-200 -2 0
-201 -3 0
-202 -1 0
-203 -2 0
-204 -3 0
-229 -1 0
-230 -2 0
-231 -3 0
-271 -1 0
-272 -2 0
-273 -3 0
-286 -1 0
-287 -2 0
-288 -3 0
-172 -4 0
-173 -5 0
-174 -6 0
-193 -4 0
-194 -5 0
-195 -6 0
-199 -4 0
-200 -5 0
-201 -6 0
-250 -4 0
-251 -5 0
-252 -6 0
-286 -4 0
-287 -5 0
-288 -6 0
-289 -4 0
-290 -5 0
-291 -6 0
-298 -4 0
-299 -5 0
-300 -6 0
-163 -7 0
-164 -8 0
-165 -9 0
-190 -7 0
-191 -8 0
-192 -9 0
-274 -7 0
-275 -8 0
-276 -9 0
-115 -10 0
-116 -11 0
-117 -12 0
-118 -10 0
-119 -11 0
-120 -12 0
-184 -10 0
-185 -11 0
-186 -12 0
-256 -10 0
-257 -11 0
-258 -12 0
-298 -10 0
-299 -11 0
-300 -12 0
-112 -13 0
-113 -14 0
-114 -15 0
-169 -13 0
-170 -14 0
-171 -15 0
-193 -13 0
-194 -14 0
-195 -15 0
-289 -13 0
-290 -14 0
-291 -15 0
-106 -16 0
-107 -17 0
-108 -18 0
-133 -16 0
-134 -17 0
-135 -18 0
-154 -16 0
-155 -17 0
-156 -18 0
-172 -16 0
-173 -17 0
-174 -18 0
-232 -16 0
-233 -17 0
-234 -18 0
-235 -16 0
-236 -17 0
-237 -18 0
-103 -19 0
-104 -20 0
-105 -21 0
-229 -19 0
-230 -20 0
-231 -21 0
-286 -19 0
-287 -20 0
-288 -21 0
-106 -22 0
-107 -23 0
-108 -24 0
-112 -22 0
-113 -23 0
-114 -24 0
-151 -22 0
-152 -23 0
-153 -24 0
-187 -25 0
-188 -26 0
-189 -27 0
-247 -25 0
-248 -26 0
-249 -27 0
-274 -25 0
-275 -26 0
-276 -27 0
-295 -25 0
-296 -26 0
-297 -27 0
-115 -28 0
-116 -29 0
-117 -30 0
-133 -28 0
-134 -29 0
-135 -30 0
-151 -28 0
-152 -29 0
-153 -30 0
-238 -28 0
-239 -29 0
-240 -30 0
-247 -28 0
-248 -29 0
-249 -30 0
-109 -31 0
-110 -32 0
-111 -33 0
-238 -31 0
-239 -32 0
-240 -33 0
-241 -31 0
-242 -32 0
-243 -33 0
-295 -31 0
-296 -32 0
-297 -33 0
-166 -34 0
-167 -35 0
-168 -36 0
-190 -34 0
-191 -35 0
-192 -36 0
-199 -34 0
-200 -35 0
-201 -36 0
-217 -34 0
-218 -35 0
-219 -36 0
-223 -34 0
-224 -35 0
-225 -36 0
-250 -34 0
-251 -35 0
-252 -36 0
-139 -37 0
-140 -38 0
-141 -39 0
-175 -37 0
-176 -38 0
-177 -39 0
-220 -37 0
-221 -38 0
-222 -39 0
-223 -37 0
-224 -38 0
-225 -39 0
-283 -37 0
-284 -38 0
-285 -39 0
-106 -40 0
-107 -41 0
-108 -42 0
-136 -40 0
-137 -41 0
-138 -42 0
-139 -40 0
-140 -41 0
-141 -42 0
-157 -40 0
-158 -41 0
-159 -42 0
-292 -40 0
-293 -41 0
-294 -42 0
-112 -43 0
-113 -44 0
-114 -45 0
-115 -43 0
-116 -44 0
-117 -45 0
-151 -43 0
-152 -44 0
-153 -45 0
-166 -43 0
-167 -44 0
-168 -45 0
-220 -43 0
-221 -44 0
-222 -45 0
-241 -43 0
-242 -44 0
-243 -45 0
-244 -43 0
-245 -44 0
-246 -45 0
-247 -43 0
-248 -44 0
-249 -45 0
-118 -46 0
-119 -47 0
-120 -48 0
-127 -46 0
-128 -47 0
-129 -48 0
-130 -46 0
-131 -47 0
-132 -48 0
-202 -46 0
-203 -47 0
-204 -48 0
-214 -46 0
-215 -47 0
-216 -48 0
-217 -46 0
-218 -47 0
-219 -48 0
-289 -46 0
-290 -47 0
-291 -48 0
-148 -49 0
-149 -50 0
-150 -51 0
-163 -49 0
-164 -50 0
-165 -51 0
-289 -49 0
-290 -50 0
-291 -51 0
-136 -52 0
-137 -53 0
-138 -54 0
-253 -52 0
-254 -53 0
-255 -54 0
-277 -52 0
-278 -53 0
-279 -54 0
-109 -55 0
-110 -56 0
-111 -57 0
-139 -55 0
-140 -56 0
-141 -57 0
-205 -55 0
-206 -56 0
-207 -57 0
-130 -58 0
-131 -59 0
-132 -60 0
-169 -58 0
-170 -59 0
-171 -60 0
-187 -58 0
-188 -59 0
-189 -60 0
-253 -58 0
-254 -59 0
-255 -60 0
-118 -61 0
-119 -62 0
-120 -63 0
-169 -61 0
-170 -62 0
-171 -63 0
-178 -61 0
-179 -62 0
-180 -63 0
-220 -61 0
-221 -62 0
-222 -63 0
-226 -61 0
-227 -62 0
-228 -63 0
-238 -61 0
-239 -62 0
-240 -63 0
-151 -64 0
-152 -65 0
-153 -66 0
-214 -64 0
-215 -65 0
-216 -66 0
-262 -64 0
-263 -65 0
-264 -66 0
-274 -64 0
-275 -65 0
-276 -66 0
-277 -64 0
-278 -65 0
-279 -66 0
-235 -67 0
-236 -68 0
-237 -69 0
-250 -67 0
-251 -68 0
-252 -69 0
-109 -70 0
-110 -71 0
-111 -72 0
-118 -70 0
-119 -71 0
-120 -72 0
-133 -70 0
-134 -71 0
-135 -72 0
-160 -70 0
-161 -71 0
-162 -72 0
-202 -70 0
-203 -71 0
-204 -72 0
-205 -70 0
-206 -71 0
-207 -72 0
-217 -70 0
-218 -71 0
-219 -72 0
-241 -70 0
-242 -71 0
-243 -72 0
-235 -73 0
-236 -74 0
-237 -75 0
-250 -73 0
-251 -74 0
-252 -75 0
-292 -73 0
-293 -74 0
-294 -75 0
-295 -73 0
-296 -74 0
-297 -75 0
-193 -76 0
-194 -77 0
-195 -78 0
-238 -76 0
-239 -77 0
-240 -78 0
-283 -76 0
-284 -77 0
-285 -78 0
-148 -79 0
-149 -80 0
-150 -81 0
-160 -79 0
-161 -80 0
-162 -81 0
-190 -79 0
-191 -80 0
-192 -81 0
-265 -79 0
-266 -80 0
-267 -81 0
-124 -82 0
-125 -83 0
-126 -84 0
-136 -82 0
-137 -83 0
-138 -84 0
-211 -82 0
-212 -83 0
-213 -84 0
-223 -82 0
-224 -83 0
-225 -84 0
-253 -82 0
-254 -83 0
-255 -84 0
-280 -82 0
-281 -83 0
-282 -84 0
-124 -85 0
-125 -86 0
-126 -87 0
-145 -85 0
-146 -86 0
-147 -87 0
-229 -85 0
-230 -86 0
-231 -87 0
-112 -88 0
-113 -89 0
-114 -90 0
-136 -88 0
-137 -89 0
-138 -90 0
-160 -88 0
-161 -89 0
-162 -90 0
-202 -88 0
-203 -89 0
-204 -90 0
-226 -88 0
-227 -89 0
-228 -90 0
-247 -88 0
-248 -89 0
-249 -90 0
-103 -91 0
-104 -92 0
-105 -93 0
-181 -91 0
-182 -92 0
-183 -93 0
-211 -91 0
-212 -92 0
-213 -93 0
-223 -91 0
-224 -92 0
-225 -93 0
-292 -91 0
-293 -92 0
-294 -93 0
-109 -94 0
-110 -95 0
-111 -96 0
-133 -94 0
-134 -95 0
-135 -96 0
-217 -94 0
-218 -95 0
-219 -96 0
-277 -94 0
-278 -95 0
-279 -96 0
-148 -97 0
-149 -98 0
-150 -99 0
-190 -97 0
-191 -98 0
-192 -99 0
-271 -97 0
-272 -98 0
-273 -99 0
-124 -100 0
-125 -101 0
-126 -102 0
-142 -100 0
-143 -101 0
-144 -102 0
-181 -100 0
-182 -101 0
-183 -102 0
-187 -100 0
-188 -101 0
-189 -102 0
-214 -100 0
-215 -101 0
-216 -102 0
-235 -100 0
-236 -101 0
-237 -102 0
-295 -100 0
-296 -101 0
-297 -102 0
-235 -103 0
-236 -104 0
-237 -105 0
-247 -103 0
-248 -104 0
-249 -105 0
-202 -106 0
-203 -107 0
-204 -108 0
-247 -106 0
-248 -107 0
-249 -108 0
-205 -109 0
-206 -110 0
-207 -111 0
-217 -109 0
-218 -110 0
-219 -111 0
-220 -109 0
-221 -110 0
-222 -111 0
-226 -109 0
-227 -110 0
-228 -111 0
-217 -115 0
-218 -116 0
-219 -117 0
-238 -115 0
-239 -116 0
-240 -117 0
-265 -115 0
-266 -116 0
-267 -117 0
-295 -115 0
-296 -116 0
-297 -117 0
-250 -118 0
-251 -119 0
-252 -120 0
-295 -118 0
-296 -119 0
-297 -120 0
-208 -121 0
-209 -122 0
-210 -123 0
-235 -121 0
-236 -122 0
-237 -123 0
-265 -121 0
-266 -122 0
-267 -123 0
-277 -121 0
-278 -122 0
-279 -123 0
-223 -124 0
-224 -125 0
-225 -126 0
-241 -124 0
-242 -125 0
-243 -126 0
-298 -124 0
-299 -125 0
-300 -126 0
-226 -127 0
-227 -128 0
-228 -129 0
-280 -127 0
-281 -128 0
-282 -129 0
-208 -130 0
-209 -131 0
-210 -132 0
-211 -130 0
-212 -131 0
-213 -132 0
-217 -130 0
-218 -131 0
-219 -132 0
-202 -133 0
-203 -134 0
-204 -135 0
-253 -133 0
-254 -134 0
-255 -135 0
-283 -133 0
-284 -134 0
-285 -135 0
-289 -133 0
-290 -134 0
-291 -135 0
-211 -136 0
-212 -137 0
-213 -138 0
-259 -136 0
-260 -137 0
-261 -138 0
-277 -136 0
-278 -137 0
-279 -138 0
-211 -139 0
-212 -140 0
-213 -141 0
-226 -139 0
-227 -140 0
-228 -141 0
-247 -139 0
-248 -140 0
-249 -141 0
-289 -139 0
-290 -140 0
-291 -141 0
-232 -142 0
-233 -143 0
-234 -144 0
-238 -142 0
-239 -143 0
-240 -144 0
-268 -142 0
-269 -143 0
-270 -144 0
-223 -145 0
-224 -146 0
-225 -147 0
-244 -145 0
-245 -146 0
-246 -147 0
-256 -145 0
-257 -146 0
-258 -147 0
-229 -148 0
-230 -149 0
-231 -150 0
-238 -148 0
-239 -149 0
-240 -150 0
-253 -148 0
-254 -149 0
-255 -150 0
-292 -148 0
-293 -149 0
-294 -150 0
-205 -151 0
-206 -152 0
-207 -153 0
-235 -151 0
-236 -152 0
-237 -153 0
-295 -151 0
-296 -152 0
-297 -153 0
-277 -157 0
-278 -158 0
-279 -159 0
-292 -157 0
-293 -158 0
-294 -159 0
-226 -160 0
-227 -161 0
-228 -162 0
-265 -160 0
-266 -161 0
-267 -162 0
-280 -160 0
-281 -161 0
-282 -162 0
-259 -163 0
-260 -164 0
-261 -165 0
-286 -163 0
-287 -164 0
-288 -165 0
-223 -166 0
-224 -167 0
-225 -168 0
-244 -166 0
-245 -167 0
-246 -168 0
-271 -169 0
-272 -170 0
-273 -171 0
-274 -172 0
-275 -173 0
-276 -174 0
-286 -172 0
-287 -173 0
-288 -174 0
-292 -172 0
-293 -173 0
-294 -174 0
-220 -175 0
-221 -176 0
-222 -177 0
-268 -175 0
-269 -176 0
-270 -177 0
-283 -175 0
-284 -176 0
-285 -177 0
-211 -181 0
-212 -182 0
-213 -183 0
-268 -181 0
-269 -182 0
-270 -183 0
-217 -187 0
-218 -188 0
-219 -189 0
-277 -190 0
-278 -191 0
-279 -192 0
-208 -193 0
-209 -194 0
-210 -195 0
-229 -193 0
-230 -194 0
-231 -195 0
-232 -193 0
-233 -194 0
-234 -195 0
-262 -196 0
-263 -197 0
-264 -198 0
-265 -196 0
-266 -197 0
-267 -198 0
-292 -196 0
-293 -197 0
-294 -198 0
-247 -199 0
-248 -200 0
-249 -201 0
-280 -199 0
-281 -200 0
-282 -201 0
